8970.0	190.0
10026.0	218.0
10096.0	232.0
8745.0	177.0
8798.0	179.0
9380.0	198.0
8633.0	171.0
8010.0	168.0
7601.0	143.0
7940.0	162.0
7627.0	151.0
7681.0	156.0
7470.0	142.0
7713.0	157.0
7049.0	132.0
7021.0	129.0
6401.0	91.0
6047.0	64.0
7427.0	141.0
6213.0	82.0
6484.0	93.0
6158.0	77.0
6230.0	88.0
6324.0	90.0
6487.0	112.0
6559.0	126.0
6859.0	127.0
